NAME 
ROWS
 N  OBJ
 L  R0      
 E  R1      
 E  R2      
 E  R3      
 E  R4      
 E  R5      
 E  R6      
 E  R7      
 E  R8      
 E  R9      
 E  R10     
 E  R11     
 E  R12     
 E  R13     
 E  R14     
 E  R15     
 E  R16     
 E  R17     
 E  R18     
 E  R19     
 E  R20     
 E  R21     
 E  R22     
 E  R23     
 E  R24     
 E  R25     
COLUMNS
    MARKER    'MARKER'                 'INTORG'
    I0(10)    OBJ       -117
    I0(10)    R0        -12
    I0(10)    R2        8
    I0(10)    R3        14
    I0(10)    R4        3
    I0(10)    R5        7
    I0(10)    R6        4
    I0(10)    R10       5
    I0(10)    R13       19
    I0(10)    R14       2
    I0(10)    R25       1
    I1(11)    OBJ       -15
    I1(11)    R0        -5
    I1(11)    R1        6
    I1(11)    R2        1
    I1(11)    R3        14
    I1(11)    R5        4
    I1(11)    R6        1
    I1(11)    R8        19
    I1(11)    R9        5
    I1(11)    R11       7
    I1(11)    R12       18
    I1(11)    R25       1
    I2(9)     OBJ       31
    I2(9)     R0        99
    I2(9)     R1        9
    I2(9)     R3        1
    I2(9)     R5        3
    I2(9)     R7        12
    I2(9)     R9        19
    I2(9)     R10       18
    I2(9)     R11       17
    I2(9)     R25       1
    I3(9)     OBJ       -200
    I3(9)     R0        125
    I3(9)     R2        1
    I3(9)     R3        12
    I3(9)     R5        8
    I3(9)     R6        7
    I3(9)     R7        16
    I3(9)     R8        9
    I3(9)     R12       16
    I3(9)     R25       1
    I4(7)     OBJ       -22
    I4(7)     R0        -45
    I4(7)     R1        13
    I4(7)     R2        5
    I4(7)     R4        6
    I4(7)     R7        8
    I4(7)     R9        9
    I4(7)     R25       1
    I5(11)    OBJ       -179
    I5(11)    R0        -191
    I5(11)    R2        15
    I5(11)    R3        12
    I5(11)    R4        15
    I5(11)    R5        5
    I5(11)    R6        13
    I5(11)    R9        8
    I5(11)    R11       6
    I5(11)    R14       14
    I5(11)    R15       14
    I5(11)    R25       1
    I6(10)    OBJ       133
    I6(10)    R0        152
    I6(10)    R5        19
    I6(10)    R6        15
    I6(10)    R7        2
    I6(10)    R10       13
    I6(10)    R11       8
    I6(10)    R12       1
    I6(10)    R13       17
    I6(10)    R14       12
    I6(10)    R25       1
    I7(10)    OBJ       96
    I7(10)    R0        179
    I7(10)    R2        14
    I7(10)    R4        6
    I7(10)    R8        13
    I7(10)    R9        13
    I7(10)    R12       15
    I7(10)    R13       11
    I7(10)    R14       8
    I7(10)    R15       -1
    I7(10)    R25       1
    I8(8)     OBJ       18
    I8(8)     R0        77
    I8(8)     R2        1
    I8(8)     R4        14
    I8(8)     R5        2
    I8(8)     R6        6
    I8(8)     R7        13
    I8(8)     R13       9
    I8(8)     R25       1
    I9(7)     OBJ       -138
    I9(7)     R0        -110
    I9(7)     R2        3
    I9(7)     R9        5
    I9(7)     R11       17
    I9(7)     R12       4
    I9(7)     R15       17
    I9(7)     R25       1
    I10(12)   OBJ       -179
    I10(12)   R0        18
    I10(12)   R1        13
    I10(12)   R2        6
    I10(12)   R6        7
    I10(12)   R8        16
    I10(12)   R9        12
    I10(12)   R10       -1
    I10(12)   R11       12
    I10(12)   R12       11
    I10(12)   R13       11
    I10(12)   R14       9
    I10(12)   R25       1
    I11(8)    OBJ       -53
    I11(8)    R0        -53
    I11(8)    R3        18
    I11(8)    R4        8
    I11(8)    R8        5
    I11(8)    R9        15
    I11(8)    R10       5
    I11(8)    R13       15
    I11(8)    R25       1
    I12(11)   OBJ       157
    I12(11)   R0        1
    I12(11)   R1        18
    I12(11)   R3        5
    I12(11)   R5        10
    I12(11)   R8        19
    I12(11)   R10       7
    I12(11)   R11       13
    I12(11)   R12       -1
    I12(11)   R14       4
    I12(11)   R15       3
    I12(11)   R25       1
    I13(10)   OBJ       -170
    I13(10)   R0        -77
    I13(10)   R5        10
    I13(10)   R6        17
    I13(10)   R7        8
    I13(10)   R9        17
    I13(10)   R10       11
    I13(10)   R11       18
    I13(10)   R13       14
    I13(10)   R15       5
    I13(10)   R25       1
    I14(10)   OBJ       -83
    I14(10)   R0        -160
    I14(10)   R1        12
    I14(10)   R3        17
    I14(10)   R6        9
    I14(10)   R7        1
    I14(10)   R9        17
    I14(10)   R10       10
    I14(10)   R11       11
    I14(10)   R12       3
    I14(10)   R25       1
    MARKER    'MARKER'                 'INTEND'
    C15(14)   OBJ       -3
    C15(14)   R0        9
    C15(14)   R2        10
    C15(14)   R3        -1
    C15(14)   R4        12
    C15(14)   R8        6
    C15(14)   R13       8
    C15(14)   R14       18
    C15(14)   R15       2
    C15(14)   R16       1
    C15(14)   R17       18
    C15(14)   R18       12
    C15(14)   R19       4
    C15(14)   R20       5
    C15(14)   R21       17
    C16(18)   OBJ       -6
    C16(18)   R0        -2
    C16(18)   R1        17
    C16(18)   R2        11
    C16(18)   R3        18
    C16(18)   R9        12
    C16(18)   R10       7
    C16(18)   R11       5
    C16(18)   R12       7
    C16(18)   R14       2
    C16(18)   R15       5
    C16(18)   R16       11
    C16(18)   R17       16
    C16(18)   R18       11
    C16(18)   R19       13
    C16(18)   R20       10
    C16(18)   R21       4
    C16(18)   R22       -1
    C16(18)   R23       14
    C17(15)   OBJ       4
    C17(15)   R0        -5
    C17(15)   R3        10
    C17(15)   R4        6
    C17(15)   R8        2
    C17(15)   R10       2
    C17(15)   R11       13
    C17(15)   R13       15
    C17(15)   R14       -1
    C17(15)   R16       7
    C17(15)   R17       10
    C17(15)   R18       7
    C17(15)   R19       10
    C17(15)   R21       7
    C17(15)   R22       13
    C17(15)   R23       1
    C18(17)   OBJ       -6
    C18(17)   R0        3
    C18(17)   R1        14
    C18(17)   R2        6
    C18(17)   R4        17
    C18(17)   R5        6
    C18(17)   R7        6
    C18(17)   R8        4
    C18(17)   R9        19
    C18(17)   R11       16
    C18(17)   R12       -1
    C18(17)   R13       7
    C18(17)   R14       10
    C18(17)   R17       1
    C18(17)   R18       7
    C18(17)   R19       13
    C18(17)   R20       13
    C18(17)   R21       6
    C19(9)    OBJ       -5
    C19(9)    R0        -8
    C19(9)    R2        9
    C19(9)    R4        18
    C19(9)    R6        2
    C19(9)    R13       11
    C19(9)    R15       2
    C19(9)    R17       3
    C19(9)    R19       2
    C19(9)    R23       13
    C20(15)   OBJ       -3
    C20(15)   R0        -10
    C20(15)   R1        4
    C20(15)   R3        8
    C20(15)   R4        3
    C20(15)   R5        -1
    C20(15)   R8        15
    C20(15)   R10       9
    C20(15)   R11       6
    C20(15)   R15       17
    C20(15)   R16       12
    C20(15)   R17       9
    C20(15)   R21       15
    C20(15)   R22       7
    C20(15)   R23       16
    C20(15)   R24       -1
    C21(11)   OBJ       3
    C21(11)   R0        4
    C21(11)   R1        10
    C21(11)   R3        5
    C21(11)   R8        13
    C21(11)   R11       10
    C21(11)   R14       19
    C21(11)   R16       12
    C21(11)   R17       16
    C21(11)   R18       6
    C21(11)   R20       11
    C21(11)   R21       12
    C22(11)   OBJ       7
    C22(11)   R0        -5
    C22(11)   R1        13
    C22(11)   R8        1
    C22(11)   R9        17
    C22(11)   R10       5
    C22(11)   R15       11
    C22(11)   R16       11
    C22(11)   R17       -1
    C22(11)   R20       14
    C22(11)   R22       18
    C22(11)   R24       19
    C23(11)   OBJ       3
    C23(11)   R0        -2
    C23(11)   R1        2
    C23(11)   R2        8
    C23(11)   R6        2
    C23(11)   R7        -1
    C23(11)   R15       5
    C23(11)   R16       2
    C23(11)   R17       8
    C23(11)   R19       11
    C23(11)   R21       11
    C23(11)   R24       18
    C24(11)   R0        -1
    C24(11)   R1        18
    C24(11)   R3        15
    C24(11)   R6        15
    C24(11)   R7        12
    C24(11)   R13       1
    C24(11)   R16       13
    C24(11)   R18       6
    C24(11)   R20       7
    C24(11)   R21       18
    C24(11)   R22       8
    C25(1)    R1        1
    C26(1)    R2        1
    C27(1)    R3        1
    C28(1)    R4        1
    C29(1)    R5        1
    C30(1)    R6        1
    C31(1)    R7        1
    C32(1)    R8        1
    C33(1)    R9        1
    C34(1)    R10       1
    C35(1)    R11       1
    C36(1)    R12       1
    C37(1)    R13       1
    C38(1)    R14       1
    C39(1)    R15       1
    C40(1)    R16       1
    C41(1)    R17       1
    C42(1)    R18       1
    C43(1)    R19       1
    C44(1)    R20       1
    C45(1)    R21       1
    C46(1)    R22       1
    C47(1)    R23       1
    C48(1)    R24       1
    C49(1)    R25       1
RHS
    RHS1      R0        -2.5455555555555554e+02
    RHS1      R1        58
    RHS1      R2        81
    RHS1      R3        85
    RHS1      R4        57
    RHS1      R5        72
    RHS1      R6        62
    RHS1      R7        81
    RHS1      R8        54
    RHS1      R9        94
    RHS1      R10       61
    RHS1      R11       53
    RHS1      R12       82
    RHS1      R13       75
    RHS1      R14       51
    RHS1      R15       61
    RHS1      R16       97
    RHS1      R17       53
    RHS1      R18       73
    RHS1      R19       65
    RHS1      R20       85
    RHS1      R21       61
    RHS1      R22       90
    RHS1      R23       64
    RHS1      R24       75
    RHS1      R25       5
BOUNDS
 UP BND1      I0(10)    1
 UP BND1      I1(11)    1
 UP BND1      I2(9)     1
 UP BND1      I3(9)     1
 UP BND1      I4(7)     1
 UP BND1      I5(11)    1
 UP BND1      I6(10)    1
 UP BND1      I7(10)    1
 UP BND1      I8(8)     1
 UP BND1      I9(7)     1
 UP BND1      I10(12)   1
 UP BND1      I11(8)    1
 UP BND1      I12(11)   1
 UP BND1      I13(10)   1
 UP BND1      I14(10)   1
ENDATA
